(declare-rel fail ())
(declare-rel inv2 (Int Int Int Int Int Int Int Int Int))
(declare-var A Int)
(declare-var B Int)
(declare-var C Int)
(declare-var D Int)
(declare-var E Int)
(declare-var F Int)
(declare-var G Int)
(declare-var H Int)
(declare-var I Int)
(declare-var J Int)
(declare-var K Int)
(declare-var L Int)
(rule (=> (and (= J 0)
         (> A 0)
         (>= 2 A)
         (= F (* 432776 A))
         (= E (* 382776 A))
         (= D (* 381629 A))
         (= C (* 482776 A))
         (= B (* 331629 A)))
    (inv2 J G L F E D C B A)))
(rule (let ((a!1 (= K (ite (>= J E) (ite (>= J F) G (+ G 1)) 0)))
      (a!2 (= I (ite (>= J B) (ite (>= J D) L (+ L 1)) 0))))
  (=> (and (inv2 J G L F E D C B A) (= H (+ 1 J)) a!1 a!2)
      (inv2 H K I F E D C B A))))
(rule (=> (and (inv2 J G L F E D C B A) (>= J C) (not (= G L))) fail))
(query fail)

